(set-info :origin "driver benchmark extracted from Microsoft SDV")
(set-logic HORN)
(declare-fun Proc21 (Int Int Int Bool Int Int Int Int Int) Bool)
(declare-fun Proc37 (Int Int Int Bool) Bool)
(declare-fun Proc4 (Int Int Int Bool Int) Bool)
(declare-fun Proc42 (Int Int Int Bool Int Int Int Bool Int) Bool)
(declare-fun Proc51 (Int Int Int Bool Int) Bool)
(declare-fun Proc24 (Int Int Int Bool Int Int Int Int) Bool)
(declare-fun Proc28 (Int Int Int Bool Int Int Int Int Int) Bool)
(declare-fun Proc34 (Int Int Int Bool) Bool)
(declare-fun Proc54 (Int Int Int Bool Int) Bool)
(declare-fun Proc12 (Int Int Int Bool Int Int) Bool)
(declare-fun Proc59 (Int Int Int Bool Int) Bool)
(declare-fun Proc40 (Int Int Int Bool Int) Bool)
(declare-fun Proc23 (Int Int Int Bool Int Int Int) Bool)
(declare-fun Proc41 (Int Int Int Bool Int Int Int) Bool)
(declare-fun Proc61 (Int Int Int Bool Int) Bool)
(declare-fun Proc10 (Int Int Int Bool Int Int) Bool)
(declare-fun Proc8 (Int Int Int Bool Int Int Int Int Int) Bool)
(declare-fun Proc46 (Int Int Int Bool Int) Bool)
(declare-fun Proc13 (Int Int Int Bool Int Int Int) Bool)
(declare-fun Proc50 (Int Int Int Bool Int) Bool)
(declare-fun Proc58 (Int Int Int Bool Int Int) Bool)
(declare-fun Proc5 (Int Int Int Bool Int Int Int Int Int) Bool)
(declare-fun Proc49 (Int Int Int Bool Int) Bool)
(declare-fun Proc33 (Int Int Int Bool Int Int Int) Bool)
(declare-fun Proc44 (Int Int Int Bool Int) Bool)
(declare-fun Proc65 (Int Int Int Bool Int Bool Int Int Int) Bool)
(declare-fun Proc43 (Int Int Int Bool Int) Bool)
(declare-fun Proc1 (Int Int Int Bool Int Int) Bool)
(declare-fun Proc0 (Int Int Int Bool Int Int) Bool)
(declare-fun Proc56 (Int Int Int Bool Int) Bool)
(declare-fun Proc27 (Int Int Int Bool Int) Bool)
(declare-fun Proc9 (Int Int Int Bool Int Int) Bool)
(declare-fun Proc17 (Int Int Int Bool Int Int Int Int) Bool)
(declare-fun Proc30 (Int Int Int Bool Int Int Int) Bool)
(declare-fun Proc20 (Int Int Int Bool Int Int Int) Bool)
(declare-fun Proc6 (Int Int Int Bool Int) Bool)
(declare-fun Proc25 (Int Int Int Bool Int Int Int Int Int) Bool)
(declare-fun Proc2 (Int Int Int Bool Int Int Int) Bool)
(declare-fun Proc47 (Int Int Int Bool Int) Bool)
(declare-fun Proc45 (Int Int Int Bool Int) Bool)
(declare-fun Proc16 (Int Int Int Bool Int Int) Bool)
(declare-fun Proc7 (Int Int Int Bool Int Int Int) Bool)
(declare-fun Proc39 (Int Int Int Bool Int) Bool)
(declare-fun Proc11 (Int Int Int Bool Int Int Int) Bool)
(declare-fun Proc18 (Int Int Int Bool Int Int) Bool)
(declare-fun Proc26 (Int Int Int Bool Int Int Int) Bool)
(declare-fun Proc15 (Int Int Int Bool Int Int Int Int Int) Bool)
(declare-fun Proc36 (Int Int Int Bool) Bool)
(declare-fun Proc3 (Int Int Int Bool Int) Bool)
(declare-fun Proc38 (Int Int Int Bool Int) Bool)
(declare-fun Proc22 (Int Int Int Bool Int Int Int Int Int) Bool)
(declare-fun Proc32 (Int Int Int Bool Int Int) Bool)
(declare-fun Proc14 (Int Int Int Bool Int Int) Bool)
(declare-fun Proc52 (Int Int Int Bool Int) Bool)
(declare-fun Proc53 (Int Int Int Bool Int) Bool)
(declare-fun Proc29 (Int Int Int Bool Int Int) Bool)
(declare-fun Proc35 (Int Int Int Bool) Bool)
(declare-fun Proc55 (Int Int Int Bool Int) Bool)
(declare-fun Proc19 (Int Int Int Bool Int Int Int) Bool)
(declare-fun Proc31 (Int Int Int Bool Int Int Int) Bool)
(declare-fun Proc57 (Int Int Int Bool Int) Bool)
(declare-fun Proc64 (Int Int Int Bool) Bool)
(declare-fun Proc63 (Int Int Int Bool Int Int Int) Bool)
(declare-fun Proc62 (Int Int Int Bool Int) Bool)
(declare-fun Proc60 (Int Int Int Bool Int Int Int Int Int Int) Bool)
(declare-fun Proc48 (Int Int Int Bool Int) Bool)
(assert (forall ((A Int) (B Int) (C Int) (D Int) (E Int) (F Bool))
  (let ((a!1 (not (or (not F) (= E 0) (not (Proc0 D C B F E 0))))))
    (=> a!1 (Proc1 D C B F A E)))))
(assert (forall ((A Int)
         (B Int)
         (C Int)
         (D Int)
         (E Int)
         (F Bool)
         (G Int)
         (H Int)
         (I Int)
         (J Int)
         (K Int)
         (L Int)
         (M Int)
         (N Int))
  (let ((a!1 (and (= N M) (not (<= L (+ 4 N)))))
        (a!2 (and (not (<= L M)) (= K L) (not (<= J (+ 4 K))) (not (<= J L)))))
  (let ((a!3 (or (not F)
                 (not a!1)
                 (not a!2)
                 (not (Proc2 J I H F 2 N G))
                 (not (Proc3 J G H F K))
                 (not (Proc4 J G H F K))
                 (not (and (= E 0) (= D J) (= C G))))))
    (=> (not a!3) (Proc5 M I H F B A E D C))))))
(assert (forall ((A Int)
         (B Int)
         (C Int)
         (D Int)
         (E Int)
         (F Bool)
         (G Int)
         (H Int)
         (I Int)
         (J Int)
         (K Int)
         (L Int)
         (M Int)
         (N Int)
         (O Int))
  (let ((a!1 (and (not (<= M (+ 4 O))) (not (<= M N)))))
  (let ((a!2 (or (not F)
                 (not (= O N))
                 (not a!1)
                 (not (Proc2 M L K F 2 O J))
                 (= I 0)
                 (not (Proc6 M J K F I))
                 (= H 0)
                 (= G 0)
                 (not (Proc7 M J K F E I D))
                 (not (and (= C D) (= B M) (= A J))))))
    (=> (not a!2) (Proc8 N L K F H I C B A))))))
(assert (forall ((A Int)
         (B Int)
         (C Int)
         (D Int)
         (E Int)
         (F Bool)
         (G Int)
         (H Int)
         (I Int))
  (let ((a!1 (not (or (not F)
                      (not (Proc9 I H G F E D))
                      (not (Proc10 I H G F D C))
                      (not (= B 0))))))
    (=> a!1 (Proc11 I H G F E A B)))))
(assert (forall ((A Int)
         (B Int)
         (C Int)
         (D Int)
         (E Int)
         (F Bool)
         (G Int)
         (H Int)
         (I Int)
         (J Int)
         (K Int)
         (L Int)
         (M Int)
         (N Int))
  (let ((a!1 (and (not (<= L (+ 128 N))) (not (<= L M)))))
  (let ((a!2 (or (not F)
                 (not (= N M))
                 (not a!1)
                 (not (Proc12 L K J F N I))
                 (not (Proc13 L I J F H 122 G))
                 (not (Proc14 L I J F N E))
                 (not (and (= D 0) (= C L) (= B E))))))
    (=> (not a!2) (Proc15 M K J F A H D C B))))))
(assert (forall ((A Int)
         (B Int)
         (C Int)
         (D Int)
         (E Int)
         (F Bool)
         (G Int)
         (H Int)
         (I Int)
         (J Int))
  (let ((a!1 (or (not F) (not (Proc16 J I H F G E)) (not (and (= D 0) (= C E))))))
    (=> (not a!1) (Proc17 J I H F B A D C)))))
(assert (forall ((A Int)
         (B Int)
         (C Int)
         (D Int)
         (E Int)
         (F Bool)
         (G Int)
         (H Int)
         (I Int)
         (J Int)
         (K Int)
         (L Int))
  (let ((a!1 (and (or (= I 0)
                      (not (Proc0 L K J F I 0))
                      (not (= G 0))
                      (not (= E G)))
                  (or (= I 0)
                      (not (Proc6 L K J F I))
                      (= D 0)
                      (= C 0)
                      (not (Proc7 L K J F B I A))
                      (not (= G A))
                      (not (= E G))))))
  (let ((a!2 (not (or (not F) (not (Proc18 L K J F I H)) (= H 0) a!1))))
    (=> a!2 (Proc19 L K J F D I E))))))
(assert (forall ((A Int)
         (B Int)
         (C Int)
         (D Int)
         (E Int)
         (F Bool)
         (G Int)
         (H Int)
         (I Int)
         (J Int))
  (let ((a!1 (not (or (not F)
                      (not (Proc6 J I H F G))
                      (= E 0)
                      (= D 0)
                      (not (Proc7 J I H F C G B))
                      (not (= A 0))))))
    (=> a!1 (Proc20 J I H F E G A)))))
(assert (forall ((A Int)
         (B Int)
         (C Int)
         (D Int)
         (E Int)
         (F Bool)
         (G Int)
         (H Int)
         (I Int)
         (J Int)
         (K Int)
         (L Int)
         (M Int)
         (N Int)
         (O Int)
         (P Int)
         (Q Int))
  (let ((a!1 (and (not (<= O (+ 4 Q))) (not (<= O P))))
        (a!2 (not (and (= K (- 513645724)) (Proc21 O L M F 1 12 K J I))))
        (a!3 (not (and (= G H) (= E I) (= D L))))
        (a!4 (not (and (= C (- 1073741670)) (= H C)))))
  (let ((a!5 (and (or (= J 0) (not (= H 0)) a!3) (or (not (= J 0)) a!4 a!3))))
  (let ((a!6 (not (or (not F)
                      (not (= Q P))
                      (not a!1)
                      (not (Proc2 O N M F 2 Q L))
                      a!2
                      a!5))))
    (=> a!6 (Proc22 P N M F B A G E D)))))))
(assert (forall ((A Int) (B Int) (C Int) (D Int) (E Int) (F Bool) (G Int) (H Int))
  (let ((a!1 (or (not F)
                 (= H 0)
                 (not (Proc0 G E D F H 0))
                 (not (= C (- 1073741536)))
                 (not (= B C)))))
    (=> (not a!1) (Proc23 G E D F A H B)))))
(assert (forall ((A Int)
         (B Int)
         (C Int)
         (D Int)
         (E Int)
         (F Bool)
         (G Int)
         (H Int)
         (I Int)
         (J Int)
         (K Int)
         (L Int)
         (M Int)
         (N Int))
  (let ((a!1 (not (and (= E H) (= D J) (= C I)))))
  (let ((a!2 (or (not (and (= I 1) (= H G))) a!1)))
  (let ((a!3 (and a!2 (or (= I 1) (not (= H 0)) a!1))))
  (let ((a!4 (not (or (not F) (not (Proc24 N M L F 1000 K J I)) a!3))))
    (=> a!4 (Proc25 N M L F B A E D C))))))))
(assert (forall ((A Int)
         (B Int)
         (C Int)
         (D Int)
         (E Int)
         (F Bool)
         (G Int)
         (H Int)
         (I Int)
         (J Int)
         (K Int)
         (L Int)
         (M Int)
         (N Int)
         (O Int)
         (P Int)
         (Q Int))
  (let ((a!1 (and (= Q P) (not (<= O (+ 4 Q)))))
        (a!2 (and (not (<= O P)) (= N O) (not (<= M (+ 84 N))) (not (<= M O))))
        (a!3 (not (and (= G H) (= E M) (= D J))))
        (a!4 (not (and (= C (- 1073741823)) (= H C)))))
  (let ((a!5 (and (or (= I 0) (not (Proc27 M J K F N)) (not (= H 0)) a!3)
                  (or (not (= I 0)) a!4 a!3))))
  (let ((a!6 (not (or (not F)
                      (not a!1)
                      (not a!2)
                      (not (Proc2 M L K F 31 Q J))
                      (not (Proc26 M J K F N 0 I))
                      a!5))))
    (=> a!6 (Proc28 P L K F B A G E D)))))))
(assert (forall ((A Int) (B Int) (C Int) (D Int) (E Int) (F Bool))
  (let ((a!1 (not (or (not F) (not (= E 1))))))
    (=> a!1 (Proc12 D C B F A E)))))
(assert (forall ((A Int) (B Int) (C Int) (D Int) (E Int) (F Bool) (G Int) (H Int))
  (let ((a!1 (and (or (not (= G 1)) (not (= E G)))
                  (or (not (= G 0)) (not (= E G))))))
  (let ((a!2 (and (or (= H 0) (not (= G 1)) (not (= E G)))
                  (or (not (= H 0)) a!1))))
    (=> (not (or (not F) a!2)) (Proc26 D C B F A H E))))))
(assert (forall ((A Int)
         (B Int)
         (C Int)
         (D Int)
         (E Int)
         (F Bool)
         (G Int)
         (H Int)
         (I Int)
         (J Int)
         (K Int)
         (L Int)
         (M Int))
  (let ((a!1 (or (not (and (= M L) (= K 0))) (not (and (= J K) (= I M)))))
        (a!2 (and (not (<= G (+ 1 H))) (not (<= G L)))))
  (let ((a!3 (or (not (= H L))
                 (not a!2)
                 (not (and (= M G) (= K H)))
                 (not (and (= J K) (= I M))))))
    (=> (not (or (not F) (and a!1 a!3))) (Proc21 L E D F C B A J I))))))
(assert (forall ((A Int) (B Int) (C Int) (D Int) (E Int) (F Bool) (G Int))
  (let ((a!1 (not (or (not F) (not (= G E))))))
    (=> a!1 (Proc14 D C B F A G)))))
(assert (forall ((A Int) (B Int) (C Int) (D Int) (F Bool)) (=> F (Proc27 D C B F A))))
(assert (forall ((A Int) (B Int) (C Int) (D Int) (E Int) (F Bool))
  (let ((a!1 (not (or (not F) (= E 0) (not (= D 2))))))
    (=> a!1 (Proc29 C B A F E D)))))
(assert (forall ((A Int)
         (B Int)
         (C Int)
         (D Int)
         (E Int)
         (F Bool)
         (G Int)
         (H Int)
         (I Int)
         (J Int)
         (K Int)
         (L Int)
         (M Int)
         (N Int)
         (O Int))
  (let ((a!1 (and (not (<= M (+ 1 O))) (not (<= M N))))
        (a!2 (not (and (= E H) (= D J) (= C I)))))
  (let ((a!3 (or (not (and (= I 1) (= H G))) a!2))
        (a!4 (and (or (not (= H 0)) a!2) (or (not (= H B)) a!2))))
  (let ((a!5 (or (not F)
                 (not (= O N))
                 (not a!1)
                 (not (Proc30 M L K F O J I))
                 (and a!3 (or (= I 1) a!4)))))
    (=> (not a!5) (Proc24 N L K F A E D C)))))))
(assert (forall ((A Int) (B Int) (C Int) (D Int) (E Int) (F Bool) (G Int))
  (let ((a!1 (not (or (not F) (not (= G E))))))
    (=> a!1 (Proc9 D C B F A G)))))
(assert (forall ((A Int) (B Int) (C Int) (D Int) (E Int) (F Bool) (G Int) (H Int))
  (let ((a!1 (and (not (<= E (+ 1 H))) (not (<= E G)))))
  (let ((a!2 (or (not F) (not (= H G)) (not a!1) (not (and (= D H) (= C E))))))
    (=> (not a!2) (Proc16 G B A F D C))))))
(assert (forall ((A Int) (B Int) (C Int) (D Int) (E Int) (F Bool) (G Int))
  (let ((a!1 (not (or (not F) (= G 0) (not (= E 259))))))
    (=> a!1 (Proc31 D C B F A G E)))))
(assert (forall ((A Int)
         (B Int)
         (C Int)
         (D Int)
         (E Int)
         (F Bool)
         (G Int)
         (H Int)
         (I Int)
         (J Int))
  (let ((a!1 (and (not (<= H (+ 1 J))) (not (<= H I)))))
  (let ((a!2 (or (not F)
                 (not (= J I))
                 (not a!1)
                 (not (Proc32 H G E F J D))
                 (not (and (= C H) (= B D))))))
    (=> (not a!2) (Proc33 I G E F A C B))))))
(assert (forall ((A Int) (B Int) (C Int) (D Int) (E Int) (F Bool))
  (let ((a!1 (not (or (not F) (not (= E 1))))))
    (=> a!1 (Proc32 D C B F A E)))))
(assert (forall ((A Int)
         (B Int)
         (C Int)
         (D Int)
         (E Int)
         (F Bool)
         (G Int)
         (H Int)
         (I Int)
         (J Int)
         (K Int))
  (let ((a!1 (or (not (= E 1))
                 (not (and (= D E) (= C G)))
                 (not (and (= B C) (= A D)))))
        (a!2 (or (= E 1)
                 (not (and (= D E) (= C G)))
                 (not (and (= B C) (= A D)))))
        (a!3 (or (not (= K 0))
                 (not (and (= D I) (= C J)))
                 (not (and (= B C) (= A D))))))
  (let ((a!4 (and (or (= K 0) (not (Proc33 J K I F H G E)) (and a!1 a!2)) a!3)))
    (=> (not (or (not F) a!4)) (Proc30 J K I F H B A))))))
(assert (forall ((A Int) (B Int) (C Int) (F Bool)) (=> F (Proc34 C B A F))))
(assert (forall ((A Int) (B Int) (C Int) (F Bool)) (=> F (Proc35 C B A F))))
(assert (forall ((A Int) (B Int) (C Int) (F Bool)) (=> F (Proc36 C B A F))))
(assert (forall ((A Int) (B Int) (C Int) (F Bool)) (=> F (Proc37 C B A F))))
(assert (forall ((A Int) (B Int) (C Int) (D Int) (F Bool))
  (let ((a!1 (not (or (not F) (not (= D 0))))))
    (=> a!1 (Proc38 C B A F D)))))
(assert (forall ((A Int) (B Int) (C Int) (D Int) (F Bool))
  (let ((a!1 (not (or (not F) (not (= D 0))))))
    (=> a!1 (Proc39 C B A F D)))))
(assert (forall ((A Int)
         (B Int)
         (C Int)
         (D Int)
         (E Int)
         (F Bool)
         (G Int)
         (H Int)
         (I Int)
         (J Int)
         (K Int)
         (L Int)
         (M Int)
         (N Int)
         (O Int)
         (P Int)
         (Q Int)
         (R Bool)
         (S Bool)
         (T Bool))
  (let ((a!1 (not (and (not (<= Q 0)) (Proc40 Q P O T N))))
        (a!2 (not (and (= E H) (= D I) (= C J) (= R S) (= B K)))))
  (let ((a!3 (or (= I 0) (not (and (= H G) (not S))) a!2))
        (a!4 (or (not (and (= I 0) (= F T))) (not (and (= H A) (= S F))) a!2)))
  (let ((a!5 (and (or (= I 1) (and a!3 a!4)) (or (not (= I 1)) (and a!3 a!4)))))
  (let ((a!6 (not (or (not T)
                      a!1
                      (not (Proc39 N P O T M))
                      (not (Proc38 N P M T L))
                      (not (Proc37 N L M T))
                      (not (Proc36 N L M T))
                      (not (Proc35 N L M T))
                      (not (Proc34 N L M T))
                      (not (Proc41 N L M T K J I))
                      a!5))))
    (=> a!6 (Proc42 Q P O T E D C R B))))))))
(assert (forall ((A Int) (B Int) (C Int) (D Int) (F Bool))
  (let ((a!1 (not (or (not F) (not (= D 1))))))
    (=> a!1 (Proc43 C B A F D)))))
(assert (forall ((A Int) (B Int) (C Int) (D Int) (F Bool))
  (let ((a!1 (not (or (not F) (not (= D 1))))))
    (=> a!1 (Proc44 C B A F D)))))
(assert (forall ((A Int) (B Int) (C Int) (D Int) (F Bool))
  (let ((a!1 (not (or (not F) (not (= D 1))))))
    (=> a!1 (Proc45 C B A F D)))))
(assert (forall ((A Int) (B Int) (C Int) (D Int) (F Bool))
  (let ((a!1 (not (or (not F) (not (= D 0))))))
    (=> a!1 (Proc46 C B A F D)))))
(assert (forall ((A Int) (B Int) (C Int) (D Int) (F Bool))
  (let ((a!1 (not (or (not F) (not (= D 1))))))
    (=> a!1 (Proc47 C B A F D)))))
(assert (forall ((A Int) (B Int) (C Int) (D Int) (F Bool))
  (let ((a!1 (not (or (not F) (not (= D 0))))))
    (=> a!1 (Proc48 C B A F D)))))
(assert (forall ((A Int) (B Int) (C Int) (D Int) (F Bool))
  (let ((a!1 (not (or (not F) (not (= D 1))))))
    (=> a!1 (Proc49 C B A F D)))))
(assert (forall ((A Int) (B Int) (C Int) (D Int) (F Bool))
  (let ((a!1 (not (or (not F) (not (= D 1))))))
    (=> a!1 (Proc50 C B A F D)))))
(assert (forall ((A Int) (B Int) (C Int) (D Int) (F Bool))
  (let ((a!1 (not (or (not F) (not (= D 0))))))
    (=> a!1 (Proc51 C B A F D)))))
(assert (forall ((A Int) (B Int) (C Int) (D Int) (F Bool))
  (let ((a!1 (not (or (not F) (not (= D 0))))))
    (=> a!1 (Proc52 C B A F D)))))
(assert (forall ((A Int) (B Int) (C Int) (D Int) (F Bool))
  (let ((a!1 (not (or (not F) (not (= D 0))))))
    (=> a!1 (Proc53 C B A F D)))))
(assert (forall ((A Int) (B Int) (C Int) (D Int) (E Int) (F Bool))
  (let ((a!1 (or (not F) (not (= E (- 1073741823))) (not (= D E)))))
    (=> (not a!1) (Proc54 C B A F D)))))
(assert (forall ((A Int) (B Int) (C Int) (D Int) (E Int) (F Bool) (G Int) (H Int))
  (let ((a!1 (not (or (not F) (not (Proc31 H G E F D C B)) (not (= A B))))))
    (=> a!1 (Proc7 H G E F D C A)))))
(assert (forall ((A Int) (B Int) (C Int) (D Int) (E Int) (F Bool))
  (=> F (Proc0 E D C F B A))))
(assert (forall ((A Int) (B Int) (C Int) (D Int) (F Bool))
  (let ((a!1 (not (or (not F) (not (= D 0))))))
    (=> a!1 (Proc55 C B A F D)))))
(assert (forall ((A Int) (B Int) (C Int) (D Int) (E Int) (F Bool) (G Int))
  (let ((a!1 (not (or (not F) (= G 0) (not (= E D))))))
    (=> a!1 (Proc18 C B A F G E)))))
(assert (forall ((A Int) (B Int) (C Int) (D Int) (E Int) (F Bool) (G Int) (H Int))
  (let ((a!1 (not (or (not F) (= H 0) (not (= G E))))))
    (=> a!1 (Proc13 D C B F H A G)))))
(assert (forall ((A Int) (B Int) (C Int) (D Int) (F Bool)) (=> F (Proc6 D C B F A))))
(assert (forall ((A Int) (B Int) (C Int) (D Int) (F Bool)) (=> F (Proc3 D C B F A))))
(assert (forall ((A Int) (B Int) (C Int) (D Int) (E Int) (F Bool) (G Int))
  (let ((a!1 (not (or (not F) (= G 0) (not (= E D))))))
    (=> a!1 (Proc2 C B A F D G E)))))
(assert (forall ((A Int) (B Int) (C Int) (D Int) (F Bool)) (=> F (Proc4 D C B F A))))
(assert (forall ((A Int) (B Int) (C Int) (D Int) (E Int) (F Bool) (G Int))
  (let ((a!1 (not (or (not F) (not (= G E))))))
    (=> a!1 (Proc10 D C B F A G)))))
(assert (forall ((A Int)
         (B Int)
         (C Int)
         (D Int)
         (E Int)
         (F Bool)
         (G Int)
         (H Int)
         (I Int)
         (J Int)
         (K Int)
         (L Int)
         (M Int)
         (N Int)
         (O Int)
         (P Int)
         (Q Int)
         (U Int)
         (V Int)
         (W Int)
         (X Int)
         (Y Int)
         (Z Int)
         (A1 Int)
         (B1 Int)
         (C1 Int)
         (D1 Int)
         (E1 Int)
         (F1 Int)
         (G1 Int)
         (H1 Int)
         (I1 Int)
         (J1 Int)
         (K1 Int)
         (L1 Int)
         (M1 Int)
         (N1 Int)
         (O1 Int)
         (P1 Int)
         (Q1 Int)
         (R1 Int)
         (S1 Int)
         (T1 Int)
         (U1 Int)
         (V1 Int)
         (W1 Int)
         (X1 Int)
         (Y1 Int)
         (Z1 Int)
         (A2 Int)
         (B2 Int)
         (C2 Int)
         (D2 Int))
  (let ((a!1 (not (and (= R1 S1) (= Q1 V1) (= P1 U1) (= O1 T1))))
        (a!2 (not (and (= N1 Q1) (= M1 O1) (= L1 R1) (= K1 P1))))
        (a!20 (not (and (= V1 C) (= U1 A2) (= T1 C2) (= S1 Y1)))))
  (let ((a!3 (or (= Z1 0)
                 (not (Proc11 C2 Y1 A2 F X1 D2 W1))
                 (not (and (= V1 W1) (= U1 A2) (= T1 C2) (= S1 Y1)))
                 (not (Proc58 T1 S1 U1 F V1 D2))
                 (= D2 0)
                 a!1
                 a!2))
        (a!4 (or (= Z1 0)
                 (not (Proc8 C2 Y1 A2 F X1 D2 J1 I1 H1))
                 (not (and (= V1 J1) (= U1 A2) (= T1 I1) (= S1 H1)))
                 (not (Proc58 T1 S1 U1 F V1 D2))
                 (= D2 0)
                 a!1
                 a!2))
        (a!5 (or (= Z1 0)
                 (not (Proc22 C2 Y1 A2 F X1 D2 G1 F1 E1))
                 (not (and (= V1 G1) (= U1 A2) (= T1 F1) (= S1 E1)))
                 (not (Proc58 T1 S1 U1 F V1 D2))
                 (= D2 0)
                 a!1
                 a!2))
        (a!6 (or (= Z1 0)
                 (not (Proc28 C2 Y1 A2 F X1 D2 D1 C1 B1))
                 (not (and (= V1 D1) (= U1 A2) (= T1 C1) (= S1 B1)))
                 (not (Proc58 T1 S1 U1 F V1 D2))
                 (= D2 0)
                 a!1
                 a!2))
        (a!7 (or (= Z1 0)
                 (not (Proc54 C2 Y1 A2 F A1))
                 (not (and (= V1 A1) (= U1 A2) (= T1 C2) (= S1 Y1)))
                 (not (Proc58 T1 S1 U1 F V1 D2))
                 (= D2 0)
                 a!1
                 a!2))
        (a!8 (or (= Z1 0)
                 (not (Proc54 C2 Y1 A2 F Z))
                 (not (and (= V1 Z) (= U1 A2) (= T1 C2) (= S1 Y1)))
                 (not (Proc58 T1 S1 U1 F V1 D2))
                 (= D2 0)
                 a!1
                 a!2))
        (a!9 (or (= Z1 0)
                 (not (Proc54 C2 Y1 A2 F Y))
                 (not (and (= V1 Y) (= U1 A2) (= T1 C2) (= S1 Y1)))
                 (not (Proc58 T1 S1 U1 F V1 D2))
                 (= D2 0)
                 a!1
                 a!2))
        (a!10 (or (not (Proc54 C2 Y1 A2 F X))
                  (not (and (= V1 X) (= U1 A2) (= T1 C2) (= S1 Y1)))
                  (not (Proc58 T1 S1 U1 F V1 D2))
                  (= D2 0)
                  a!1
                  a!2))
        (a!11 (or (= Z1 0)
                  (not (Proc15 C2 Y1 A2 F X1 D2 W V U))
                  (not (and (= V1 W) (= U1 A2) (= T1 V) (= S1 U)))
                  (not (Proc58 T1 S1 U1 F V1 D2))
                  (= D2 0)
                  a!1
                  a!2))
        (a!12 (or (= Z1 0)
                  (not (Proc17 C2 Y1 A2 F X1 D2 Q P))
                  (not (and (= V1 Q) (= U1 A2) (= T1 P) (= S1 Y1)))
                  (not (Proc58 T1 S1 U1 F V1 D2))
                  (= D2 0)
                  a!1
                  a!2))
        (a!13 (or (= Z1 0)
                  (not (Proc23 C2 Y1 A2 F X1 D2 O))
                  (not (and (= V1 O) (= U1 A2) (= T1 C2) (= S1 Y1)))
                  (not (Proc58 T1 S1 U1 F V1 D2))
                  (= D2 0)
                  a!1
                  a!2))
        (a!14 (or (not (Proc54 C2 Y1 A2 F N))
                  (not (and (= V1 N) (= U1 A2) (= T1 C2) (= S1 Y1)))
                  (not (Proc58 T1 S1 U1 F V1 D2))
                  (= D2 0)
                  a!1
                  a!2))
        (a!15 (or (= Z1 0)
                  (not (Proc5 C2 Y1 A2 F X1 D2 M L K))
                  (not (and (= V1 M) (= U1 A2) (= T1 L) (= S1 K)))
                  (not (Proc58 T1 S1 U1 F V1 D2))
                  (= D2 0)
                  a!1
                  a!2))
        (a!16 (or (= Z1 0)
                  (not (Proc59 C2 Y1 A2 F D2))
                  (not (Proc20 C2 Y1 A2 F X1 D2 J))
                  (not (and (= V1 J) (= U1 A2) (= T1 C2) (= S1 Y1)))
                  (not (Proc58 T1 S1 U1 F V1 D2))
                  (= D2 0)
                  a!1
                  a!2))
        (a!17 (or (not (= G 1))
                  (not (and (= R1 Y1) (= Q1 E) (= P1 G) (= O1 H)))
                  a!2))
        (a!18 (or (= G 1)
                  (not (and (= V1 I) (= U1 G) (= T1 H) (= S1 Y1)))
                  (not (Proc58 T1 S1 U1 F V1 D2))
                  (= D2 0)
                  a!1
                  a!2))
        (a!19 (or (not (Proc54 C2 Y1 A2 F D))
                  (not (and (= V1 D) (= U1 A2) (= T1 C2) (= S1 Y1)))
                  (not (Proc58 T1 S1 U1 F V1 D2))
                  (= D2 0)
                  a!1
                  a!2))
        (a!21 (and (or (= Z1 0)
                       (not (Proc19 C2 Y1 A2 F X1 D2 C))
                       a!20
                       (not (Proc58 T1 S1 U1 F V1 D2))
                       (= D2 0)
                       a!1
                       a!2)
                   (or (not (= B 1))
                       (= B 0)
                       (= Z1 0)
                       (not (Proc19 C2 Y1 A2 F X1 D2 C))
                       a!20
                       (not (Proc58 T1 S1 U1 F V1 D2))
                       (= D2 0)
                       a!1
                       a!2))))
  (let ((a!22 (and (or (= Z1 0) a!21) (or (not (= A 1)) (= A 0) (= Z1 0) a!21))))
  (let ((a!23 (and a!3
                   a!4
                   a!5
                   a!6
                   a!7
                   a!8
                   a!9
                   a!10
                   a!11
                   a!12
                   a!13
                   a!14
                   a!15
                   a!16
                   (or (= Z1 0)
                       (not (Proc25 C2 Y1 A2 F X1 D2 I H G))
                       (and a!17 a!18))
                   a!19
                   (or (= Z1 0) a!22))))
  (let ((a!24 (not (or (not F)
                       (= D2 0)
                       (not (Proc56 C2 B2 A2 F D2))
                       (= Z1 0)
                       (not (Proc57 C2 B2 A2 F Y1))
                       a!23))))
    (=> a!24 (Proc60 C2 B2 A2 F X1 D2 N1 M1 L1 K1)))))))))
(assert (forall ((A Int)
         (B Int)
         (C Int)
         (D Int)
         (E Int)
         (F Bool)
         (G Int)
         (H Int)
         (I Int)
         (J Int))
  (let ((a!1 (not (or (not F)
                      (not (Proc61 J I H F G))
                      (not (Proc54 J G H F E))
                      (not (Proc62 J G H F D))
                      (not (= C D))))))
    (=> a!1 (Proc63 J I H F B A C)))))
(assert (forall ((A Int) (B Int) (C Int) (D Int) (E Int) (F Bool))
  (=> (not (or (not F) (= E 0) (= D 0))) (Proc59 C B A F E))))
(assert (forall ((A Int) (B Int) (C Int) (D Int) (F Bool))
  (=> (not (or (not F) (= D 0))) (Proc56 C B A F D))))
(assert (forall ((A Int)
         (B Int)
         (C Int)
         (D Int)
         (E Int)
         (F Bool)
         (G Int)
         (H Int)
         (I Int)
         (J Int)
         (K Int)
         (L Int)
         (M Int)
         (N Int)
         (O Int)
         (P Int)
         (Q Int)
         (U Int)
         (V Int)
         (W Int)
         (X Int)
         (Y Int)
         (Z Int)
         (A1 Int)
         (B1 Int)
         (C1 Int)
         (D1 Int)
         (E1 Int)
         (F1 Int)
         (G1 Int)
         (H1 Int)
         (I1 Int)
         (J1 Int)
         (K1 Int)
         (L1 Int))
  (let ((a!1 (not (and (= K L) (= J N) (= I M))))
        (a!3 (not (and (not (= O 1)) (= N P) (= M O) (= L Q)))))
  (let ((a!2 (or (not (and (= O 1) (= N P) (= M O) (= L Q))) a!1))
        (a!4 (or (not (and (= I1 0) (= N K1) (= M J1) (= L L1))) a!1))
        (a!5 (or (= H1 0)
                 (not (Proc64 L1 K1 J1 F))
                 (not (and (Proc63 L1 K1 J1 F H G E) (= N E) (= M J1) (= L L1)))
                 a!1))
        (a!6 (or (not (and (= H1 0) (= N K1) (= M J1) (= L L1))) a!1))
        (a!7 (or (not (= N K1)) (not (and (= M J1) (= L L1))) a!1))
        (a!8 (or (not (Proc29 L1 K1 J1 F D C))
                 (not (Proc1 L1 C J1 F B A))
                 (not (= N C))
                 (not (and (= M J1) (= L L1)))
                 a!1)))
  (let ((a!9 (and (or (= I1 0)
                      (not (Proc64 L1 K1 J1 F))
                      (not (Proc60 L1 K1 J1 F W V U Q P O))
                      (and a!2 (or a!3 a!1)))
                  a!4
                  a!5
                  a!6
                  a!7
                  a!8)))
  (let ((a!10 (not (or (not F)
                       (not (Proc45 L1 K1 J1 F I1))
                       (not (Proc52 L1 K1 J1 F H1))
                       (not (Proc46 L1 K1 J1 F G1))
                       (not (Proc51 L1 K1 J1 F F1))
                       (not (Proc44 L1 K1 J1 F E1))
                       (not (Proc48 L1 K1 J1 F D1))
                       (not (Proc55 L1 K1 J1 F C1))
                       (not (Proc53 L1 K1 J1 F B1))
                       (not (Proc43 L1 K1 J1 F A1))
                       (not (Proc49 L1 K1 J1 F Z))
                       (not (Proc50 L1 K1 J1 F Y))
                       (not (Proc47 L1 K1 J1 F X))
                       a!9))))
    (=> a!10 (Proc41 L1 K1 J1 F K J I))))))))
(assert (forall ((A Int) (B Int) (C Int) (D Int) (F Bool))
  (let ((a!1 (not (or (not F) (not (= D 0))))))
    (=> a!1 (Proc57 C B A F D)))))
(assert (forall ((A Int) (B Int) (C Int) (D Int) (E Int) (F Bool))
  (=> F (Proc58 E D C F B A))))
(assert (forall ((A Int) (B Int) (C Int) (F Bool)) (=> F (Proc64 C B A F))))
(assert (forall ((A Int) (B Int) (C Int) (D Int) (F Bool))
  (let ((a!1 (not (or (not F) (not (= D 2))))))
    (=> a!1 (Proc61 C B A F D)))))
(assert (forall ((A Int) (B Int) (C Int) (D Int) (F Bool))
  (let ((a!1 (not (or (not F) (not (= D 0))))))
    (=> a!1 (Proc62 C B A F D)))))
(assert (forall ((A Int)
         (B Int)
         (C Int)
         (D Int)
         (E Int)
         (F Bool)
         (G Int)
         (H Int)
         (I Int)
         (J Int)
         (K Int)
         (L Int)
         (M Int)
         (N Int)
         (O Int)
         (P Int)
         (Q Int)
         (U Int)
         (V Int)
         (W Int)
         (X Int)
         (Y Int)
         (Z Int)
         (A1 Int)
         (B1 Int)
         (C1 Int)
         (D1 Int)
         (E1 Int)
         (F1 Int)
         (G1 Int)
         (H1 Int)
         (I1 Int)
         (J1 Int)
         (K1 Int)
         (L1 Int)
         (M1 Int)
         (N1 Int)
         (O1 Int)
         (P1 Int)
         (Q1 Int)
         (R1 Int)
         (S1 Int)
         (T1 Int)
         (U1 Int)
         (V1 Int)
         (W1 Int)
         (X1 Int)
         (Y1 Int)
         (Z1 Int)
         (A2 Int)
         (B2 Int)
         (C2 Int)
         (D2 Int)
         (E2 Int)
         (F2 Int)
         (G2 Int)
         (H2 Int))
  (let ((a!1 (and (= H2 G2) (not (<= F2 (+ 4 H2)))))
        (a!2 (and (not (<= F2 G2))
                  (= E2 F2)
                  (not (<= D2 (+ 332 E2)))
                  (not (<= D2 F2))))
        (a!3 (and (= C2 D2)
                  (not (<= B2 (+ 4 C2)))
                  (not (<= B2 D2))
                  (= A2 B2)
                  (not (<= Z1 (+ 536 A2)))
                  (not (<= Z1 B2))
                  (= Y1 Z1)
                  (not (<= X1 (+ 240 Y1)))))
        (a!4 (and (not (<= X1 Z1))
                  (= W1 X1)
                  (not (<= V1 (+ 240 W1)))
                  (not (<= V1 X1))
                  (= U1 V1)
                  (not (<= T1 (+ 536 U1)))
                  (not (<= T1 V1))
                  (= S1 T1)
                  (not (<= R1 (+ 240 S1)))
                  (not (<= R1 T1))
                  (= Q1 R1)
                  (not (<= P1 (+ 4 Q1)))
                  (not (<= P1 R1))
                  (= O1 P1)
                  (not (<= N1 (+ 536 O1)))
                  (not (<= N1 P1))
                  (= M1 N1)
                  (not (<= L1 (+ 332 M1)))
                  (not (<= L1 N1))
                  (= K1 L1)
                  (not (<= J1 (+ 60 K1)))
                  (not (<= J1 L1))
                  (= I1 J1)
                  (not (<= H1 (+ 240 I1)))
                  (not (<= H1 J1))
                  (= G1 H1)
                  (not (<= F1 (+ 240 G1)))
                  (not (<= F1 H1))
                  (= E1 F1)
                  (not (<= D1 (+ 332 E1)))
                  (not (<= D1 F1))
                  (= C1 D1)
                  (not (<= B1 (+ 4 C1)))
                  (not (<= B1 D1))
                  (= A1 B1)
                  (not (<= Z (+ 536 A1)))
                  (not (<= Z B1))
                  (= Y Z)
                  (not (<= X (+ 240 Y)))
                  (not (<= X Z))
                  (= W X)
                  (not (<= V (+ 240 W)))
                  (not (<= V X))
                  (= U V)
                  (not (<= Q (+ 240 U)))
                  (not (<= Q V))
                  (= P Q)
                  (not (<= O (+ 240 P)))
                  (not (<= O Q))
                  (= N O)
                  (not (<= M (+ 240 N)))
                  (not (<= M O))
                  (= L M)
                  (not (<= K (+ 40 L)))
                  (not (<= K M))
                  (= J K)
                  (not (<= I (+ 332 J)))
                  (not (<= I K))
                  (= H I)
                  (not (<= G (+ 4 H)))
                  (not (<= G I))
                  (= E G)
                  (not (<= D (+ 40 E)))
                  (not (<= D G)))))
  (let ((a!5 (not (or (not F)
                      (not a!1)
                      (not a!2)
                      (not a!3)
                      (not a!4)
                      (not (= C D))))))
    (=> a!5 (Proc40 G2 B A F C))))))
(assert (forall ((A Int)
         (B Int)
         (C Int)
         (D Int)
         (E Int)
         (F Bool)
         (G Int)
         (H Int)
         (I Int)
         (J Int)
         (K Int)
         (L Int)
         (R Bool)
         (S Bool))
  (let ((a!1 (or (not S) (not (and (Proc42 L K J true I H G R E) (not R))))))
    (=> (not a!1) (Proc65 L K J S D F C B A)))))
(assert (let ((a!1 (exists ((V0 Int)
                    (V1 Int)
                    (V2 Int)
                    (V3 Bool)
                    (V4 Int)
                    (V5 Bool)
                    (V6 Int)
                    (V7 Int)
                    (V8 Int))
             (not (=> (and (Proc65 V0 V1 V2 V3 V4 V5 V6 V7 V8) (not false))
                      false)))))
  (not a!1)))

(check-sat)
